Route #1: 66 64 72 8 10 69 15 60 49 67 63 7 29 62 75 37 20 42 40 51 5 56 36 34 14
Route #2: 39 53 70 46 71 32 38 58 52 55 33 4 74 47 21
Route #3: 45 78 11 43 12 19 54 41 61 17 26
Route #4: 2 73 44 68 22 18 57
Route #5: 48 28 31 13 30 50 6 76 23 9 16 77 35
Route #6: 1 25 59
Route #7: 27 24 65
Route #8: 3
Route #9: 
Route #10: 
cost 2398.684023335116
